peakDumbCharging = 7400; 
Machine = anon_enum(16); 
machineSpeed = [3700,3700,3700,3700,3700,3700,3700,3700,3700,3700,3700,3700,3700,3700,3700,3700]; 
machineLoad = [3700,3700,3700,3700,3700,3700,3700,3700,3700,3700,3700,3700,3700,3700,3700,3700]; 
Car = anon_enum(8); 
demandCar = [4520,1080,5680,1720,2480,25320,9320,5560]; 
arrivalCar = [73,65,62,61,59,51,42,39]; 
departureCar = [78,67,64,63,61,62,47,42]; 
